p cnf 319 748
32 0
-1 -64 0
-33 -64 0
1 33 64 0
1 33 -65 0
-1 -33 -65 0
-1 33 65 0
1 -33 65 0
64 -66 0
-34 -66 0
34 -64 66 0
34 -64 -67 0
-34 64 -67 0
34 64 67 0
-34 -64 67 0
66 -68 0
-35 -68 0
35 -66 68 0
35 -66 -69 0
-35 66 -69 0
35 66 69 0
-35 -66 69 0
68 -70 0
-36 -70 0
36 -68 70 0
36 -68 -71 0
-36 68 -71 0
36 68 71 0
-36 -68 71 0
70 -72 0
-37 -72 0
37 -70 72 0
37 -70 -73 0
-37 70 -73 0
37 70 73 0
-37 -70 73 0
72 -74 0
-38 -74 0
38 -72 74 0
38 -72 -75 0
-38 72 -75 0
38 72 75 0
-38 -72 75 0
74 -76 0
-39 -76 0
39 -74 76 0
39 -74 -77 0
-39 74 -77 0
39 74 77 0
-39 -74 77 0
76 -78 0
-40 -78 0
40 -76 78 0
40 -76 -79 0
-40 76 -79 0
40 76 79 0
-40 -76 79 0
78 -80 0
-41 -80 0
41 -78 80 0
41 -78 -81 0
-41 78 -81 0
41 78 81 0
-41 -78 81 0
80 -82 0
-42 -82 0
42 -80 82 0
42 -80 -83 0
-42 80 -83 0
42 80 83 0
-42 -80 83 0
82 -84 0
-43 -84 0
43 -82 84 0
43 -82 -85 0
-43 82 -85 0
43 82 85 0
-43 -82 85 0
84 -86 0
-44 -86 0
44 -84 86 0
44 -84 -87 0
-44 84 -87 0
44 84 87 0
-44 -84 87 0
86 -88 0
-45 -88 0
45 -86 88 0
45 -86 -89 0
-45 86 -89 0
45 86 89 0
-45 -86 89 0
88 -90 0
-46 -90 0
46 -88 90 0
46 -88 -91 0
-46 88 -91 0
46 88 91 0
-46 -88 91 0
90 -92 0
-47 -92 0
47 -90 92 0
47 -90 -93 0
-47 90 -93 0
47 90 93 0
-47 -90 93 0
92 -94 0
-48 -94 0
48 -92 94 0
48 -92 -95 0
-48 92 -95 0
48 92 95 0
-48 -92 95 0
94 -96 0
-49 -96 0
49 -94 96 0
49 -94 -97 0
-49 94 -97 0
49 94 97 0
-49 -94 97 0
96 -98 0
-50 -98 0
50 -96 98 0
50 -96 -99 0
-50 96 -99 0
50 96 99 0
-50 -96 99 0
98 -100 0
-51 -100 0
51 -98 100 0
51 -98 -101 0
-51 98 -101 0
51 98 101 0
-51 -98 101 0
100 -102 0
-52 -102 0
52 -100 102 0
52 -100 -103 0
-52 100 -103 0
52 100 103 0
-52 -100 103 0
102 -104 0
-53 -104 0
53 -102 104 0
53 -102 -105 0
-53 102 -105 0
53 102 105 0
-53 -102 105 0
104 -106 0
-54 -106 0
54 -104 106 0
54 -104 -107 0
-54 104 -107 0
54 104 107 0
-54 -104 107 0
106 -108 0
-55 -108 0
55 -106 108 0
55 -106 -109 0
-55 106 -109 0
55 106 109 0
-55 -106 109 0
108 -110 0
-56 -110 0
56 -108 110 0
56 -108 -111 0
-56 108 -111 0
56 108 111 0
-56 -108 111 0
110 -112 0
-57 -112 0
57 -110 112 0
57 -110 -113 0
-57 110 -113 0
57 110 113 0
-57 -110 113 0
112 -114 0
-58 -114 0
58 -112 114 0
58 -112 -115 0
-58 112 -115 0
58 112 115 0
-58 -112 115 0
114 -116 0
-59 -116 0
59 -114 116 0
59 -114 -117 0
-59 114 -117 0
59 114 117 0
-59 -114 117 0
116 -118 0
-60 -118 0
60 -116 118 0
60 -116 -119 0
-60 116 -119 0
60 116 119 0
-60 -116 119 0
118 -120 0
-61 -120 0
61 -118 120 0
61 -118 -121 0
-61 118 -121 0
61 118 121 0
-61 -118 121 0
120 -122 0
-62 -122 0
62 -120 122 0
62 -120 -123 0
-62 120 -123 0
62 120 123 0
-62 -120 123 0
122 -124 0
-63 -124 0
63 -122 124 0
63 -122 -125 0
-63 122 -125 0
63 122 125 0
-63 -122 125 0
-33 63 126 0
33 63 -126 0
-63 -65 126 0
-63 65 -126 0
-34 63 127 0
34 63 -127 0
-63 -67 127 0
-63 67 -127 0
-35 63 128 0
35 63 -128 0
-63 -69 128 0
-63 69 -128 0
-36 63 129 0
36 63 -129 0
-63 -71 129 0
-63 71 -129 0
-37 63 130 0
37 63 -130 0
-63 -73 130 0
-63 73 -130 0
-38 63 131 0
38 63 -131 0
-63 -75 131 0
-63 75 -131 0
-39 63 132 0
39 63 -132 0
-63 -77 132 0
-63 77 -132 0
-40 63 133 0
40 63 -133 0
-63 -79 133 0
-63 79 -133 0
-41 63 134 0
41 63 -134 0
-63 -81 134 0
-63 81 -134 0
-42 63 135 0
42 63 -135 0
-63 -83 135 0
-63 83 -135 0
-43 63 136 0
43 63 -136 0
-63 -85 136 0
-63 85 -136 0
-44 63 137 0
44 63 -137 0
-63 -87 137 0
-63 87 -137 0
-45 63 138 0
45 63 -138 0
-63 -89 138 0
-63 89 -138 0
-46 63 139 0
46 63 -139 0
-63 -91 139 0
-63 91 -139 0
-47 63 140 0
47 63 -140 0
-63 -93 140 0
-63 93 -140 0
-48 63 141 0
48 63 -141 0
-63 -95 141 0
-63 95 -141 0
-49 63 142 0
49 63 -142 0
-63 -97 142 0
-63 97 -142 0
-50 63 143 0
50 63 -143 0
-63 -99 143 0
-63 99 -143 0
-51 63 144 0
51 63 -144 0
-63 -101 144 0
-63 101 -144 0
-52 63 145 0
52 63 -145 0
-63 -103 145 0
-63 103 -145 0
-53 63 146 0
53 63 -146 0
-63 -105 146 0
-63 105 -146 0
-54 63 147 0
54 63 -147 0
-63 -107 147 0
-63 107 -147 0
-55 63 148 0
55 63 -148 0
-63 -109 148 0
-63 109 -148 0
-56 63 149 0
56 63 -149 0
-63 -111 149 0
-63 111 -149 0
-57 63 150 0
57 63 -150 0
-63 -113 150 0
-63 113 -150 0
-58 63 151 0
58 63 -151 0
-63 -115 151 0
-63 115 -151 0
-59 63 152 0
59 63 -152 0
-63 -117 152 0
-63 117 -152 0
-60 63 153 0
60 63 -153 0
-63 -119 153 0
-63 119 -153 0
-61 63 154 0
61 63 -154 0
-63 -121 154 0
-63 121 -154 0
-62 63 155 0
62 63 -155 0
-63 -123 155 0
-63 123 -155 0
63 -156 0
-63 -125 156 0
-63 125 -156 0
-1 -157 0
-126 -157 0
1 126 157 0
1 126 -158 0
-1 -126 -158 0
-1 126 158 0
1 -126 158 0
157 -159 0
-127 -159 0
127 -157 159 0
127 -157 -160 0
-127 157 -160 0
127 157 160 0
-127 -157 160 0
159 -161 0
-128 -161 0
128 -159 161 0
128 -159 -162 0
-128 159 -162 0
128 159 162 0
-128 -159 162 0
161 -163 0
-129 -163 0
129 -161 163 0
129 -161 -164 0
-129 161 -164 0
129 161 164 0
-129 -161 164 0
163 -165 0
-130 -165 0
130 -163 165 0
130 -163 -166 0
-130 163 -166 0
130 163 166 0
-130 -163 166 0
165 -167 0
-131 -167 0
131 -165 167 0
131 -165 -168 0
-131 165 -168 0
131 165 168 0
-131 -165 168 0
167 -169 0
-132 -169 0
132 -167 169 0
132 -167 -170 0
-132 167 -170 0
132 167 170 0
-132 -167 170 0
169 -171 0
-133 -171 0
133 -169 171 0
133 -169 -172 0
-133 169 -172 0
133 169 172 0
-133 -169 172 0
171 -173 0
-134 -173 0
134 -171 173 0
134 -171 -174 0
-134 171 -174 0
134 171 174 0
-134 -171 174 0
173 -175 0
-135 -175 0
135 -173 175 0
135 -173 -176 0
-135 173 -176 0
135 173 176 0
-135 -173 176 0
175 -177 0
-136 -177 0
136 -175 177 0
136 -175 -178 0
-136 175 -178 0
136 175 178 0
-136 -175 178 0
177 -179 0
-137 -179 0
137 -177 179 0
137 -177 -180 0
-137 177 -180 0
137 177 180 0
-137 -177 180 0
179 -181 0
-138 -181 0
138 -179 181 0
138 -179 -182 0
-138 179 -182 0
138 179 182 0
-138 -179 182 0
181 -183 0
-139 -183 0
139 -181 183 0
139 -181 -184 0
-139 181 -184 0
139 181 184 0
-139 -181 184 0
183 -185 0
-140 -185 0
140 -183 185 0
140 -183 -186 0
-140 183 -186 0
140 183 186 0
-140 -183 186 0
185 -187 0
-141 -187 0
141 -185 187 0
141 -185 -188 0
-141 185 -188 0
141 185 188 0
-141 -185 188 0
187 -189 0
-142 -189 0
142 -187 189 0
142 -187 -190 0
-142 187 -190 0
142 187 190 0
-142 -187 190 0
189 -191 0
-143 -191 0
143 -189 191 0
143 -189 -192 0
-143 189 -192 0
143 189 192 0
-143 -189 192 0
191 -193 0
-144 -193 0
144 -191 193 0
144 -191 -194 0
-144 191 -194 0
144 191 194 0
-144 -191 194 0
193 -195 0
-145 -195 0
145 -193 195 0
145 -193 -196 0
-145 193 -196 0
145 193 196 0
-145 -193 196 0
195 -197 0
-146 -197 0
146 -195 197 0
146 -195 -198 0
-146 195 -198 0
146 195 198 0
-146 -195 198 0
197 -199 0
-147 -199 0
147 -197 199 0
147 -197 -200 0
-147 197 -200 0
147 197 200 0
-147 -197 200 0
199 -201 0
-148 -201 0
148 -199 201 0
148 -199 -202 0
-148 199 -202 0
148 199 202 0
-148 -199 202 0
201 -203 0
-149 -203 0
149 -201 203 0
149 -201 -204 0
-149 201 -204 0
149 201 204 0
-149 -201 204 0
203 -205 0
-150 -205 0
150 -203 205 0
150 -203 -206 0
-150 203 -206 0
150 203 206 0
-150 -203 206 0
205 -207 0
-151 -207 0
151 -205 207 0
151 -205 -208 0
-151 205 -208 0
151 205 208 0
-151 -205 208 0
207 -209 0
-152 -209 0
152 -207 209 0
152 -207 -210 0
-152 207 -210 0
152 207 210 0
-152 -207 210 0
209 -211 0
-153 -211 0
153 -209 211 0
153 -209 -212 0
-153 209 -212 0
153 209 212 0
-153 -209 212 0
211 -213 0
-154 -213 0
154 -211 213 0
154 -211 -214 0
-154 211 -214 0
154 211 214 0
-154 -211 214 0
213 -215 0
-155 -215 0
155 -213 215 0
155 -213 -216 0
-155 213 -216 0
155 213 216 0
-155 -213 216 0
63 -126 2 0
63 126 -2 0
-63 -158 2 0
-63 158 -2 0
63 -127 3 0
63 127 -3 0
-63 -160 3 0
-63 160 -3 0
63 -128 4 0
63 128 -4 0
-63 -162 4 0
-63 162 -4 0
63 -129 5 0
63 129 -5 0
-63 -164 5 0
-63 164 -5 0
63 -130 6 0
63 130 -6 0
-63 -166 6 0
-63 166 -6 0
63 -131 7 0
63 131 -7 0
-63 -168 7 0
-63 168 -7 0
63 -132 8 0
63 132 -8 0
-63 -170 8 0
-63 170 -8 0
63 -133 9 0
63 133 -9 0
-63 -172 9 0
-63 172 -9 0
63 -134 10 0
63 134 -10 0
-63 -174 10 0
-63 174 -10 0
63 -135 11 0
63 135 -11 0
-63 -176 11 0
-63 176 -11 0
63 -136 12 0
63 136 -12 0
-63 -178 12 0
-63 178 -12 0
63 -137 13 0
63 137 -13 0
-63 -180 13 0
-63 180 -13 0
63 -138 14 0
63 138 -14 0
-63 -182 14 0
-63 182 -14 0
63 -139 15 0
63 139 -15 0
-63 -184 15 0
-63 184 -15 0
63 -140 16 0
63 140 -16 0
-63 -186 16 0
-63 186 -16 0
63 -141 17 0
63 141 -17 0
-63 -188 17 0
-63 188 -17 0
63 -142 18 0
63 142 -18 0
-63 -190 18 0
-63 190 -18 0
63 -143 19 0
63 143 -19 0
-63 -192 19 0
-63 192 -19 0
63 -144 20 0
63 144 -20 0
-63 -194 20 0
-63 194 -20 0
63 -145 21 0
63 145 -21 0
-63 -196 21 0
-63 196 -21 0
63 -146 22 0
63 146 -22 0
-63 -198 22 0
-63 198 -22 0
63 -147 23 0
63 147 -23 0
-63 -200 23 0
-63 200 -23 0
63 -148 24 0
63 148 -24 0
-63 -202 24 0
-63 202 -24 0
63 -149 25 0
63 149 -25 0
-63 -204 25 0
-63 204 -25 0
63 -150 26 0
63 150 -26 0
-63 -206 26 0
-63 206 -26 0
63 -151 27 0
63 151 -27 0
-63 -208 27 0
-63 208 -27 0
63 -152 28 0
63 152 -28 0
-63 -210 28 0
-63 210 -28 0
63 -153 29 0
63 153 -29 0
-63 -212 29 0
-63 212 -29 0
63 -154 30 0
63 154 -30 0
-63 -214 30 0
-63 214 -30 0
63 -155 31 0
63 155 -31 0
-63 -216 31 0
-63 216 -31 0
1 -281 0
-1 281 0
33 -282 0
-33 282 0
34 -283 0
-34 283 0
35 -284 0
-35 284 0
36 -285 0
-36 285 0
37 -286 0
-37 286 0
38 -287 0
-38 287 0
39 -288 0
-39 288 0
40 -289 0
-40 289 0
41 -290 0
-41 290 0
42 -291 0
-42 291 0
43 -292 0
-43 292 0
44 -293 0
-44 293 0
45 -294 0
-45 294 0
46 -295 0
-46 295 0
47 -296 0
-47 296 0
48 -297 0
-48 297 0
49 -298 0
-49 298 0
50 -299 0
-50 299 0
51 -300 0
-51 300 0
52 -301 0
-52 301 0
53 -302 0
-53 302 0
54 -303 0
-54 303 0
55 -304 0
-55 304 0
56 -305 0
-56 305 0
57 -306 0
-57 306 0
58 -307 0
-58 307 0
59 -308 0
-59 308 0
60 -309 0
-60 309 0
61 -310 0
-61 310 0
62 -311 0
-62 311 0
63 -312 0
-63 312 0
-313 -315 -317 0
313 315 -317 0
-313 315 317 0
313 -315 317 0
-314 -316 -318 0
314 316 -318 0
-314 316 318 0
314 -316 318 0
-317 -319 0
-318 -319 0
317 318 319 0
-32 319 0
32 -319 0
c __CPROVER_malloc_is_new_array#1 FALSE
c mul2::1::v!0@1#1 249 250 251 252 253 254 255 256 257 258 259 260 261 262 263 264 265 266 267 268 269 270 271 272 273 274 275 276 277 278 279 280
c mul2::1::__return_value!0@1#2 FALSE 1 2 3 4 5 6 7 8 9 10 11 12 13 14 15 16 17 18 19 20 21 22 23 24 25 26 27 28 29 30 31
c mul2::i!0@1#1 1 33 34 35 36 37 38 39 40 41 42 43 44 45 46 47 48 49 50 51 52 53 54 55 56 57 58 59 60 61 62 63
c __CPROVER_malloc_object#1 FALSE FALSE FALSE FALSE FALSE FALSE FALSE FALSE FALSE FALSE FALSE FALSE FALSE FALSE FALSE FALSE FALSE FALSE FALSE FALSE FALSE FALSE FALSE FALSE FALSE FALSE FALSE FALSE FALSE FALSE FALSE FALSE
c _start::i!0#1 1 33 34 35 36 37 38 39 40 41 42 43 44 45 46 47 48 49 50 51 52 53 54 55 56 57 58 59 60 61 62 63
c mul2::1::v!0@1#2 FALSE 1 2 3 4 5 6 7 8 9 10 11 12 13 14 15 16 17 18 19 20 21 22 23 24 25 26 27 28 29 30 31
c __CPROVER_deallocated#1 FALSE FALSE FALSE FALSE FALSE FALSE FALSE FALSE FALSE FALSE FALSE FALSE FALSE FALSE FALSE FALSE FALSE FALSE FALSE FALSE FALSE FALSE FALSE FALSE FALSE FALSE FALSE FALSE FALSE FALSE FALSE FALSE
c __CPROVER_malloc_size#1 FALSE FALSE FALSE FALSE FALSE FALSE FALSE FALSE FALSE FALSE FALSE FALSE FALSE FALSE FALSE FALSE FALSE FALSE FALSE FALSE FALSE FALSE FALSE FALSE FALSE FALSE FALSE FALSE FALSE FALSE FALSE FALSE
c mul2::1::__return_value!0@1#1 217 218 219 220 221 222 223 224 225 226 227 228 229 230 231 232 233 234 235 236 237 238 239 240 241 242 243 244 245 246 247 248
c __CPROVER_dead_object#1 FALSE FALSE FALSE FALSE FALSE FALSE FALSE FALSE FALSE FALSE FALSE FALSE FALSE FALSE FALSE FALSE FALSE FALSE FALSE FALSE FALSE FALSE FALSE FALSE FALSE FALSE FALSE FALSE FALSE FALSE FALSE FALSE
c __CPROVER_memory_leak#1 FALSE FALSE FALSE FALSE FALSE FALSE FALSE FALSE FALSE FALSE FALSE FALSE FALSE FALSE FALSE FALSE FALSE FALSE FALSE FALSE FALSE FALSE FALSE FALSE FALSE FALSE FALSE FALSE FALSE FALSE FALSE FALSE
c __CPROVER_next_thread_id#1 FALSE FALSE FALSE FALSE FALSE FALSE FALSE FALSE FALSE FALSE FALSE FALSE FALSE FALSE FALSE FALSE FALSE FALSE FALSE FALSE FALSE FALSE FALSE FALSE FALSE FALSE FALSE FALSE FALSE FALSE FALSE FALSE
c symex::io::0 281 282 283 284 285 286 287 288 289 290 291 292 293 294 295 296 297 298 299 300 301 302 303 304 305 306 307 308 309 310 311 312
c __CPROVER_pipe_count#1 FALSE FALSE FALSE FALSE FALSE FALSE FALSE FALSE FALSE FALSE FALSE FALSE FALSE FALSE FALSE FALSE FALSE FALSE FALSE FALSE FALSE FALSE FALSE FALSE FALSE FALSE FALSE FALSE FALSE FALSE FALSE FALSE
c __CPROVER_rounding_mode!0#1 FALSE FALSE FALSE FALSE FALSE FALSE FALSE FALSE FALSE FALSE FALSE FALSE FALSE FALSE FALSE FALSE FALSE FALSE FALSE FALSE FALSE FALSE FALSE FALSE FALSE FALSE FALSE FALSE FALSE FALSE FALSE FALSE
c __CPROVER_thread_id!0#1 FALSE FALSE FALSE FALSE FALSE FALSE FALSE FALSE FALSE FALSE FALSE FALSE FALSE FALSE FALSE FALSE FALSE FALSE FALSE FALSE FALSE FALSE FALSE FALSE FALSE FALSE FALSE FALSE FALSE FALSE FALSE FALSE
c ind 1 2 3 4 5 6 7 8 9 10 0
c ind 11 12 13 14 15 16 17 18 19 20 0
c ind 21 22 23 24 25 26 27 28 29 30 0
c ind 31 0
cr 1 2 3 4 5 6 7 8 9 10 11 12 13 14 15 16 17 18 19 20 21 22 23 24 25 26 27 28 29 30 31
